\ENCODING=ISO-8859-1
\Problem name: IloCplex

Minimize
 obj1: 1000000 y0 + 1000000 y1 + 1000000 y2 + 1000000 y3 + 1000000 y4
       + 1000000 y5 + 1000000 y6 + 1000000 y7 + 1000000 y8 + 1000000 y9
       + 1000000 y10 + 1000000 y11 + 1000000 y12 + 1000000 y13 + 1000000 y14
       + 1000000 y15 + 1000000 y16 + 1000000 y17 + 1000000 y18 + 1000000 y19
       + 1000000 y20 + 1000000 y21 + 1000000 y22 + 1000000 y23 + 1000000 y24
       + 1000000 y25 + 1000000 y26 + 1000000 y27 + 1000000 y28 + 1000000 y29
       + 1000000 y30 + 1000000 y31 + 1000000 y32 + 1000000 y33 + 1000000 y34
       + 1000000 y35 + 1000000 y36 + 1000000 y37 + 1000000 y38 + 1000000 y39
       + 1000000 y40 + 1000000 y41 + 1000000 y42 + 1000000 y43 + 1000000 y44
       + 1000000 y45 + 1000000 y46 + 1000000 y47 + 1000000 y48 + 1000000 y49
       + x51 + x52 + x53 + x54 + x55 + x56 + x57 + x58 + x59 + x60 + x61 + x62
       + x63 + x64 + x65 + x66 + x67 + x68 + x69 + x70 + x71 + x72 + x73 + x74
       + x75 + x76 + x77 + x78 + x79 + x80 + x81 + x82 + x83 + x84 + x85 + x86
       + x87 + x88 + x89 + x90 + x91 + x92 + x93 + x94 + x95 + x96 + x97 + x98
       + x99 + x100 + x101 + x102 + x103 + x104 + x105 + x106 + x107 + x108
       + x109 + x110 + x111 + x112 + x113 + x114 + x115 + x116 + x117 + x118
       + x119 + x120 + x121 + x122 + x123 + x124 + x125 + x126 + x127 + x128
       + x129 + x130 + x131 + x132 + x133 + x134 + x135 + x136 + x137 + x138
       + x139 + x140 + x141 + x142 + x143 + x144 + x145 + x146 + x147 + x148
       + x149 + x150 + x151 + x152 + x153 + x154 + x155 + x156 + x157 + x158
       + x159 + x160 + x161 + x162 + x163 + x164 + x165 + x166 + x167 + x168
       + x169 + x170 + x171 + x172 + x173 + x174 + x175 + x176 + x177 + x178
       + x179 + x180 + x181 + x182 + x183 + x184 + x185 + x186 + x187 + x188
       + x189 + x190 + x191 + x192 + x193 + x194 + x195
Subject To
 c1:  y0 + x146  = 1
 c2:  y1 + x147  = 1
 c3:  y2 + x145  = 1
 c4:  y3 + x144  = 1
 c5:  y4 + x143  = 1
 c6:  y5 + x142 + x179  = 1
 c7:  y6 + x139 + x141 + x178  = 1
 c8:  y7 + x137 + x138 + x162  = 1
 c9:  y8 + x135 + x136 + x161 + x175  = 1
 c10: y9 + x133 + x134 + x140 + x158  = 1
 c11: y10 + x130 + x132 + x174  = 1
 c12: y11 + x126 + x129 + x167  = 1
 c13: y12 + x122 + x125  = 1
 c14: y13 + x120 + x121 + x153 + x182  = 1
 c15: y14 + x117 + x119 + x124 + x185 + x190 + x195  = 1
 c16: y15 + x113 + x114 + x156  = 1
 c17: y16 + x115 + x116 + x188 + x191  = 1
 c18: y17 + x111 + x112 + x128 + x149 + x164 + x180 + x181  = 1
 c19: y18 + x109 + x110 + x118 + x123 + x155 + x177 + x183 + x194  = 1
 c20: y19 + x105 + x108 + x163 + x176  = 1
 c21: y20 + x102 + x104 + x107 + x184  = 1
 c22: y21 + x100 + x101 + x103 + x106 + x168 + x169  = 1
 c23: y22 + x93 + x99 + x101 + x170  = 1
 c24: y23 + x93 + x99 + x100 + x102 + x187 + x192  = 1
 c25: y24 + x90 + x91 + x106 + x107 + x152 + x176  = 1
 c26: y25 + x89 + x90 + x92 + x108 + x186  = 1
 c27: y26 + x82 + x86 + x87 + x95 + x98 + x148 + x154 + x172  = 1
 c28: y27 + x84 + x87 + x88 + x96 + x97 + x103 + x104 + x105 + x148 + x150
      + x171 + x173  = 1
 c29: y28 + x77 + x81 + x83 + x88 + x92 + x110 + x156 + x181  = 1
 c30: y29 + x81 + x82 + x89 + x96 + x111 + x152 + x171 + x189 + x191  = 1
 c31: y30 + x73 + x74 + x77 + x84 + x113 + x127 + x164 + x187 + x188 + x190
       = 1
 c32: y31 + x77 + x79 + x80 + x85 + x94 + x115 + x131 + x165 + x172 + x173
      + x192 + x193 + x195  = 1
 c33: y32 + x73 + x74 + x75 + x78 + x79 + x94 + x116 + x131 + x160 + x165
      + x172 + x173 + x183 + x185 + x186  = 1
 c34: y33 + x69 + x70 + x72 + x74 + x85 + x98 + x150 + x153 + x159 + x165
      + x166  = 1
 c35: y34 + x69 + x71 + x72 + x76 + x78 + x83 + x91 + x95 + x123 + x124 + x151
      + x159 + x186 + x193  = 1
 c36: y35 + x65 + x67 + x68 + x69 + x75 + x94 + x109 + x117 + x151 + x154
      + x159 + x160 + x163 + x168 + x169 + x170 + x171 + x182  = 1
 c37: y36 + x65 + x66 + x67 + x68 + x71 + x78 + x86 + x91 + x92 + x118 + x119
      + x122 + x157 + x166  = 1
 c38: y37 + x61 + x64 + x65 + x80 + x83 + x97 + x112 + x126 + x189  = 1
 c39: y38 + x60 + x61 + x63 + x66 + x73 + x85 + x114 + x120 + x125 + x157
      + x166 + x167 + x170 + x177 + x184 + x189 + x192  = 1
 c40: y39 + x60 + x61 + x62 + x70 + x75 + x76 + x80 + x81 + x97 + x98 + x127
      + x149 + x151 + x152 + x160 + x166 + x169 + x184 + x187 + x193 + x194
       = 1
 c41: y40 + x56 + x60 + x62 + x63 + x64 + x66 + x71 + x76 + x79 + x84 + x121
      + x154 + x155 + x157 + x160  = 1
 c42: y41 + x52 + x53 + x54 + x55 + x56 + x57 + x58 + x59 + x63 + x64 + x67
      + x70 + x76 + x82 + x127 + x128 + x129 + x148 + x157 + x168 + x180 + x189
      + x193  = 1
 c43: y42 + x51 + x52 + x53 + x55 + x56 + x57 + x58 + x59 + x62 + x64 + x68
      + x70 + x73 + x79 + x95 + x150 + x151 + x155 + x180 + x194  = 1
 c44: y43 + x51 + x52 + x53 + x54 + x57 + x58 + x59 + x61 + x67 + x72 + x88
      + x90 + x131 + x134 + x159 + x174  = 1
 c45: y44 + x51 + x52 + x53 + x54 + x55 + x57 + x58 + x59 + x60 + x65 + x72
      + x87 + x96 + x97 + x127 + x131 + x132 + x150 + x177  = 1
 c46: y45 + x51 + x52 + x53 + x54 + x55 + x56 + x58 + x59 + x62 + x63 + x66
      + x68 + x70 + x72 + x75 + x80 + x83 + x86 + x94 + x130 + x149 + x154
      + x157 + x158 + x161  = 1
 c47: y46 + x51 + x52 + x53 + x54 + x55 + x56 + x57 + x59 + x62 + x63 + x64
      + x68 + x71 + x74 + x78 + x81 + x85 + x95 + x137 + x163 + x165 + x175
       = 1
 c48: y47 + x51 + x52 + x53 + x54 + x55 + x56 + x57 + x58 + x62 + x63 + x65
      + x69 + x76 + x86 + x88 + x89 + x96 + x98 + x135 + x162 + x163 + x164
      + x178 + x179  = 1
 c49: y48 + x51 + x52 + x54 + x55 + x56 + x57 + x58 + x59 + x62 + x64 + x66
      + x69 + x75 + x78 + x80 + x82 + x127 + x133 + x139  = 1
 c50: y49 + x51 + x53 + x54 + x55 + x56 + x57 + x58 + x59 + x61 + x68 + x71
      + x75 + x77 + x86 + x87 + x89 + x93 + x113 + x120 + x158 + x159 + x162
      + x165 + x175 + x177 + x181  = 1
End
